100 152690
46 40 83 49 76 29 9 6 100 57 95 78 42 43 14 12 47 58 93 3 77 68 96 97 89 25 87 23 13 54 67 98 69 20 91 84 62 90 85 26 32 18 64 2 82 79 48 94 37 59 80 73 66 27 11 92 60 4 74 17 1 44 19 56 75 70 99 30 22 39 86 81 71 72 28 34 10 31 15 35 45 41 21 55 50 33 88 53 51 61 38 63 36 24 7 8 52 16 5 65 
